c Random 6-CNF over 20 variables and 40 clauses
c Generated with `cnfgen`
c (C) 2012-2016 Massimo Lauria <lauria.massimo@gmail.com>
c https://massimolauria.github.io/cnfgen
c
c COMMAND LINE: cnfgen --output tmp-6-20-40.dimacs --output-format dimacs randkcnf 6 20 40
c
c sdimacs generated by gen-sdimacs
c
p cnf 20 40
r 0.5 1 2 3 4 5 6 7 8 9 10 0
e  11 12 13 14 15 16 17 18 19 20 0
8 9 -14 17 -18 19 0
-1 -4 -10 -16 -17 -19 0
1 -5 -9 13 14 16 0
5 -12 13 18 19 20 0
-2 -4 -11 14 -18 -19 0
2 4 -5 -8 -17 18 0
1 4 -7 -9 12 19 0
-1 -2 -3 -9 -14 -16 0
-2 4 6 -13 -15 16 0
-2 -7 10 -16 17 -20 0
-8 -12 -15 16 17 19 0
4 5 13 -15 -17 20 0
-6 -7 -9 -10 13 -19 0
1 3 -4 -6 -10 16 0
1 2 8 9 -10 19 0
-1 -8 -10 -11 -13 -18 0
-4 6 -11 -16 -19 -20 0
1 -8 9 11 -13 -16 0
-1 2 3 -9 12 19 0
2 -5 -6 7 11 -13 0
5 -8 -12 -15 16 17 0
3 -5 10 13 -16 18 0
-1 -4 6 7 -12 19 0
3 -5 8 -13 -16 -19 0
2 6 -11 12 -14 -17 0
2 -6 -7 9 13 -15 0
-2 -8 10 11 12 20 0
-2 7 -8 -9 -12 -18 0
-2 -6 11 -13 -16 18 0
8 -14 -15 -16 -19 20 0
-2 -5 -6 -15 16 20 0
-2 -9 10 -13 -14 -15 0
4 -5 7 -9 15 19 0
1 6 -11 -13 -15 20 0
-1 -6 7 9 -16 20 0
-2 8 -14 -16 18 20 0
-3 -4 -5 6 -17 19 0
-2 -4 8 13 16 -20 0
-1 3 14 16 -19 20 0
2 4 -9 14 15 -18 0
